NAME:  test1
TYPE: AGTSP
COMMENT: gtsp tours
DIMENSION:  61
GTSP_SETS: 13
EDGE_WEIGHT_TYPE: EXPLICIT
EDGE_WEIGHT_FORMAT: FULL_MATRIX 
EDGE_WEIGHT_SECTION
999999	0	999999	999999	999999	22899	22899	22899	22891	999999	22904	22904	22904	22896	999999	22895	22895	22887	999999	999999	22932	22932	22932	22932	22924	22893	22893	22885	999999	999999	22931	22931	22931	22931	22923	22930	22930	22930
999999	999999	0	999999	999999	22899	22899	22899	22899	22891	22904	22904	22904	22904	22896	22895	22895	22895	22887	999999	22932	22932	22932	999999	999999	22893	22893	22893	22885	999999	22931	22931	22931	999999	999999	22930	22930	22930
999999	999999	999999	0	999999	22899	22899	22899	22899	999999	22904	22904	22904	22904	999999	22895	22895	22895	22895	22887	22932	22932	22932	22932	999999	22893	22893	22893	22893	22885	22931	22931	22931	22931	999999	22930	22930	22930
999999	999999	999999	999999	0	22899	22899	22899	22899	22899	22904	22904	22904	22904	22904	22895	22895	22895	22895	22895	22932	22932	22932	22932	22932	22893	22893	22893	22893	22893	22931	22931	22931	22931	22931	22930	22930	22930
0	999999	999999	999999	999999	22899	22899	22891	999999	999999	22904	22904	22896	999999	999999	22895	22887	999999	999999	999999	22932	22932	22932	22924	999999	22893	22885	999999	999999	999999	22931	22931	22931	22923	999999	22930	22930	22930
22899	22899	22899	22891	999999	999999	0	999999	999999	999999	22887	22887	22879	999999	999999	22891	22891	22883	999999	999999	22938	22938	999999	999999	999999	22889	22889	22881	999999	999999	22931	22931	22931	22931	22923	22924	22924	22924
22899	22899	22899	22899	22891	999999	999999	0	999999	999999	22887	22887	22887	22879	999999	22891	22891	22891	22883	999999	22938	22938	22938	999999	999999	22889	22889	22889	22881	999999	22931	22931	22931	999999	999999	22924	22924	22924
22899	22899	22899	22899	999999	999999	999999	999999	0	999999	22887	22887	22887	22887	22879	22891	22891	22891	22891	22883	22938	22938	22938	22938	999999	22889	22889	22889	22889	22881	22931	22931	22931	22931	999999	22924	22924	22924
22899	22899	22899	22899	22899	999999	999999	999999	999999	0	22887	22887	22887	22887	22887	22891	22891	22891	22891	22891	22938	22938	22938	22938	22938	22889	22889	22889	22889	22889	22931	22931	22931	22931	22931	22924	22924	22924
22899	22899	22891	999999	999999	0	999999	999999	999999	999999	22887	22879	999999	999999	999999	22891	22883	999999	999999	999999	22938	22938	22938	22938	22930	22889	22881	999999	999999	999999	22931	22931	22931	22923	999999	22924	22924	22924
22904	22904	22904	22896	999999	22887	22887	22879	999999	999999	999999	0	999999	999999	999999	22895	22895	22887	999999	999999	22941	22941	999999	999999	999999	22894	22894	22886	999999	999999	22932	22932	22932	22932	22924	22924	22924	22924
22904	22904	22904	22904	22896	22887	22887	22887	22879	999999	999999	999999	0	999999	999999	22895	22895	22895	22887	999999	22941	22941	22941	999999	999999	22894	22894	22894	22886	999999	22932	22932	22932	999999	999999	22924	22924	22924
22904	22904	22904	22904	999999	22887	22887	22887	22887	22879	999999	999999	999999	0	999999	22895	22895	22895	22895	22887	22941	22941	22941	22941	999999	22894	22894	22894	22894	22886	22932	22932	22932	22932	999999	22924	22924	22924
22904	22904	22904	22904	22904	22887	22887	22887	22887	22887	999999	999999	999999	999999	0	22895	22895	22895	22895	22895	22941	22941	22941	22941	22941	22894	22894	22894	22894	22894	22932	22932	22932	22932	22932	22924	22924	22924
22904	22904	22896	999999	999999	22887	22879	999999	999999	999999	0	999999	999999	999999	999999	22895	22887	999999	999999	999999	22941	22941	22941	22941	22933	22894	22886	999999	999999	999999	22932	22932	22932	22924	999999	22924	22924	22924
22895	22895	22887	999999	999999	22891	22891	22883	999999	999999	22895	22895	22887	999999	999999	999999	0	999999	999999	999999	22930	22930	22930	22930	22922	22891	22891	22883	999999	999999	22924	22924	22924	22924	22916	22920	22920	22920
22895	22895	22895	22887	999999	22891	22891	22891	22883	999999	22895	22895	22895	22887	999999	999999	999999	0	999999	999999	22930	22930	22930	999999	999999	22891	22891	22891	22883	999999	22924	22924	22924	999999	999999	22920	22920	22920
22895	22895	22895	22895	22887	22891	22891	22891	22891	22883	22895	22895	22895	22895	22887	999999	999999	999999	0	999999	22930	22930	22930	22930	999999	22891	22891	22891	22891	22883	22924	22924	22924	22924	999999	22920	22920	22920
22895	22895	22895	22895	22895	22891	22891	22891	22891	22891	22895	22895	22895	22895	22895	999999	999999	999999	999999	0	22930	22930	22930	22930	22930	22891	22891	22891	22891	22891	22924	22924	22924	22924	22924	22920	22920	22920
22895	22887	999999	999999	999999	22891	22883	999999	999999	999999	22895	22887	999999	999999	999999	0	999999	999999	999999	999999	22930	22930	22930	22922	999999	22891	22883	999999	999999	999999	22924	22924	22924	22916	999999	22920	22920	22920
22932	22932	22932	22932	22924	22938	22938	999999	999999	999999	22941	22941	999999	999999	999999	22930	22930	22930	22930	22922	999999	0	999999	999999	999999	22938	22938	999999	999999	999999	22901	22901	22901	22893	999999	22917	22917	22917
22932	22932	22932	999999	999999	22938	22938	22938	999999	999999	22941	22941	22941	999999	999999	22930	22930	22930	999999	999999	999999	999999	0	999999	999999	22938	22938	22938	999999	999999	22901	22901	22901	22901	22893	22917	22917	22917
22932	22932	22932	22932	999999	22938	22938	22938	22938	999999	22941	22941	22941	22941	999999	22930	22930	22930	22930	999999	999999	999999	999999	0	999999	22938	22938	22938	22938	999999	22901	22901	22901	22901	999999	22917	22917	22917
22932	22932	22932	22932	22932	22938	22938	22938	22938	22938	22941	22941	22941	22941	22941	22930	22930	22930	22930	22930	999999	999999	999999	999999	0	22938	22938	22938	22938	22938	22901	22901	22901	22901	22901	22917	22917	22917
22932	22932	22932	22924	999999	22938	22938	22938	22938	22930	22941	22941	22941	22941	22933	22930	22930	22930	22922	999999	0	999999	999999	999999	999999	22938	22938	22938	22938	22930	22901	22901	22893	999999	999999	22917	22917	22917
22893	22893	22885	999999	999999	22889	22889	22881	999999	999999	22894	22894	22886	999999	999999	22891	22891	22883	999999	999999	22938	22938	999999	999999	999999	999999	0	999999	999999	999999	22934	22934	999999	999999	999999	22929	22929	22929
22893	22893	22893	22885	999999	22889	22889	22889	22881	999999	22894	22894	22894	22886	999999	22891	22891	22891	22883	999999	22938	22938	22938	999999	999999	999999	999999	0	999999	999999	22934	22934	22934	999999	999999	22929	22929	22929
22893	22893	22893	22893	22885	22889	22889	22889	22889	22881	22894	22894	22894	22894	22886	22891	22891	22891	22891	22883	22938	22938	22938	22938	999999	999999	999999	999999	0	999999	22934	22934	22934	22934	999999	22929	22929	22929
22893	22893	22893	22893	22893	22889	22889	22889	22889	22889	22894	22894	22894	22894	22894	22891	22891	22891	22891	22891	22938	22938	22938	22938	22938	999999	999999	999999	999999	0	22934	22934	22934	22934	22934	22929	22929	22929
22893	22885	999999	999999	999999	22889	22881	999999	999999	999999	22894	22886	999999	999999	999999	22891	22883	999999	999999	999999	22938	22938	22938	22938	22930	0	999999	999999	999999	999999	22934	22934	22934	22934	22926	22929	22929	22929
22931	22931	22931	22931	22923	22931	22931	22931	22931	22923	22932	22932	22932	22932	22924	22924	22924	22924	22924	22916	22901	22901	22901	22893	999999	22934	22934	999999	999999	999999	999999	0	999999	999999	999999	22898	22898	22890
22931	22931	22931	999999	999999	22931	22931	22931	999999	999999	22932	22932	22932	999999	999999	22924	22924	22924	999999	999999	22901	22901	22901	22901	22893	22934	22934	22934	999999	999999	999999	999999	0	999999	999999	22898	22898	22898
22931	22931	22931	22931	999999	22931	22931	22931	22931	999999	22932	22932	22932	22932	999999	22924	22924	22924	22924	999999	22901	22901	22901	22901	999999	22934	22934	22934	22934	999999	999999	999999	999999	0	999999	22898	22898	22898
22931	22931	22931	22931	22931	22931	22931	22931	22931	22931	22932	22932	22932	22932	22932	22924	22924	22924	22924	22924	22901	22901	22901	22901	22901	22934	22934	22934	22934	22934	999999	999999	999999	999999	0	22898	22898	22898
22931	22931	22931	22923	999999	22931	22931	22931	22923	999999	22932	22932	22932	22924	999999	22924	22924	22924	22916	999999	22901	22901	22893	999999	999999	22934	22934	22934	22934	22926	0	999999	999999	999999	999999	22898	22890	999999
22930	22930	22930	22930	22922	22924	22924	22924	22924	22916	22924	22924	22924	22924	22916	22920	22920	22920	22920	22912	22917	22917	22917	22917	22909	22929	22929	22929	22929	22921	22898	22898	22890	999999	999999	999999	0	999999
22930	22930	22930	999999	999999	22924	22924	22924	999999	999999	22924	22924	22924	999999	999999	22920	22920	22920	999999	999999	22917	22917	22917	999999	999999	22929	22929	22929	999999	999999	22898	22898	22898	22890	999999	999999	999999	0
22930	22930	22930	22930	999999	22924	22924	22924	22924	999999	22924	22924	22924	22924	999999	22920	22920	22920	22920	999999	22917	22917	22917	22917	999999	22929	22929	22929	22929	999999	22898	22898	22898	22898	22890	999999	999999	999999
GTSP_SET_SECTION:
1 1 2 3 4 5 -1
2 6 7 8 9 10 -1
3 11 12 13 14 15 -1
4 16 17 18 19 20 -1
5 21 22 23 24 25 -1
6 26 27 28 29 30 -1
7 31 32 33 34 35 -1
8 36 37 38 39 40 -1
9 41 42 43 44 45 -1
10 46 47 48 49 50 -1
11 51 52 53 54 55 -1
12 56 57 58 59 60 -1
13 61 -1
EOF